3 3 2
25 2 31 1 10 2 45 0 27 1 60 2 10 1 79 0 23 2 28 0 52 2 49 1 57 0 53 2 66 1 17 0 17 2 6 1 22 2 29 1 53 0 84 2 35 1 58 0 5 2 72 
25 1 51 0 12 1 34 2 7 1 65 0 9 1 55 0 79 2 38 0 19 2 14 1 51 0 18 2 63 0 89 2 4 0 56 2 94 0 91 2 4 1 51 0 17 1 76 2 9 1 7 
25 0 62 2 74 0 32 1 45 0 26 1 98 0 4 2 58 1 22 2 43 0 43 1 91 2 86 1 87 2 71 1 7 0 81 1 12 2 78 0 1 1 46 0 28 1 56 2 39 0 43 

-------------
